WARNING: for repeatability, setting FPU to use double precision
============================[ Problem Statistics ]=============================
|                                                                             |
|  Number of variables:           272                                         |
|  Number of clauses:            1061                                         |
|  Parse time:                   0.00 s                                       |
|                                                                             |
============================[ Search Statistics ]==============================
| Conflicts |          ORIGINAL         |          LEARNT          | Progress |
|           |    Vars  Clauses Literals |    Limit  Clauses Lit/Cl |          |
===============================================================================
|       100 |     272     1061     3028 |      389      100      8 |  0.001 % |
===============================================================================
restarts              : 3
conflicts             : 205            (inf /sec)
decisions             : 236            (0.00 % random) (inf /sec)
propagations          : 9524           (inf /sec)
conflict literals     : 1337           (24.34 % deleted)
Memory used           : 19.00 MB
CPU time              : 0 s

UNSATISFIABLE
